p cnf 31 88
8 9 10 11 12 13 0
14 15 16 17 18 19 0
20 21 22 23 24 25 0
26 27 28 29 30 31 0
-8 -14 0
-9 -15 0
-10 -16 0
-11 -17 0
-12 -18 0
-13 -19 0
-8 -20 0
-9 -21 0
-10 -22 0
-11 -23 0
-12 -24 0
-13 -25 0
-8 -26 0
-9 -27 0
-10 -28 0
-11 -29 0
-12 -30 0
-13 -31 0
-14 -20 0
-15 -21 0
-16 -22 0
-17 -23 0
-18 -24 0
-19 -25 0
-14 -26 0
-15 -27 0
-16 -28 0
-17 -29 0
-18 -30 0
-19 -31 0
-20 -26 0
-21 -27 0
-22 -28 0
-23 -29 0
-24 -30 0
-25 -31 0
-8 -16 0
-8 -19 0
-9 -17 0
-9 -19 0
-10 -14 0
-11 -15 0
-13 -14 0
-13 -15 0
-8 -22 0
-8 -25 0
-9 -23 0
-9 -25 0
-10 -20 0
-11 -21 0
-13 -20 0
-13 -21 0
-8 -28 0
-8 -31 0
-9 -29 0
-9 -31 0
-10 -26 0
-11 -27 0
-13 -26 0
-13 -27 0
-14 -22 0
-14 -25 0
-15 -23 0
-15 -25 0
-16 -20 0
-17 -21 0
-19 -20 0
-19 -21 0
-14 -28 0
-14 -31 0
-15 -29 0
-15 -31 0
-16 -26 0
-17 -27 0
-19 -26 0
-19 -27 0
-20 -28 0
-20 -31 0
-21 -29 0
-21 -31 0
-22 -26 0
-23 -27 0
-25 -26 0
-25 -27 0
